QuantityOfVehiclesAvailable = 10;
QuantityOfClients = 4;
Time = [
[0,30571,12313,2907,4609],
[30571,0,21289,24209,23640],
[12313,21289,0,10788,9455],
[2907,24209,10788,0,4390],
[4609,23640,9455,4390,0]
];
VehiclesCapacity = [10,10,10,10,10,10,10,10,10,10];
VehiclesGreatestPossibleDemand = 11;
GreatestPossibleDemand = 5;
ClientsDemand = [0,4,2,2,2];
VehicleCost = 100000;
